db/data/3978238982337796986845316542636530870.z3.out
-------------------
2500.074461087
